55
1 0 18
2 0 13
2 1 31
3 0 1
3 1 4
3 2 17
4 0 15
4 1 11
4 2 19
4 3 2
5 0 14
5 1 17
5 2 10
5 3 28
5 4 28
6 0 14
6 1 27
6 2 21
6 3 1
6 4 7
6 5 26
7 0 23
7 1 13
7 2 10
7 3 24
7 4 21
7 5 1
7 6 26
8 0 28
8 1 16
8 2 24
8 3 1
8 4 18
8 5 1
8 6 31
8 7 21
9 0 12
9 1 33
9 2 20
9 3 13
9 4 10
9 5 2
9 6 5
9 7 33
9 8 2
10 0 21
10 1 28
10 2 3
10 3 4
10 4 3
10 5 14
10 6 14
10 7 23
10 8 5
10 9 21
11 0 9
11 1 24
11 2 2
11 3 3
11 4 25
11 5 9
11 6 33
11 7 24
11 8 11
11 9 3
11 10 5
12 0 15
12 1 13
12 2 12
12 3 1
12 4 5
12 5 24
12 6 25
12 7 24
12 8 25
12 9 8
12 10 3
12 11 6
13 0 18
13 1 4
13 2 26
13 3 16
13 4 9
13 5 26
13 6 17
13 7 9
13 8 6
13 9 22
13 10 15
13 11 10
13 12 2
14 0 1
14 1 27
14 2 22
14 3 18
14 4 13
14 5 2
14 6 31
14 7 26
14 8 11
14 9 18
14 10 13
14 11 19
14 12 3
14 13 29
15 0 13
15 1 10
15 2 8
15 3 26
15 4 29
15 5 20
15 6 27
15 7 17
15 8 12
15 9 5
15 10 13
15 11 14
15 12 5
15 13 23
15 14 13
16 0 16
16 1 7
16 2 32
16 3 32
16 4 14
16 5 23
16 6 32
16 7 8
16 8 27
16 9 33
16 10 24
16 11 20
16 12 32
16 13 30
16 14 7
16 15 3
17 0 15
17 1 7
17 2 26
17 3 27
17 4 28
17 5 1
17 6 12
17 7 14
17 8 6
17 9 10
17 10 3
17 11 20
17 12 19
17 13 20
17 14 15
17 15 14
17 16 17
18 0 1
18 1 29
18 2 29
18 3 23
18 4 25
18 5 9
18 6 30
18 7 9
18 8 26
18 9 17
18 10 31
18 11 2
18 12 22
18 13 24
18 14 20
18 15 28
18 16 14
18 17 6
19 0 27
19 1 1
19 2 32
19 3 18
19 4 12
19 5 11
19 6 11
19 7 14
19 8 17
19 9 29
19 10 12
19 11 2
19 12 32
19 13 10
19 14 26
19 15 14
19 16 9
19 17 25
19 18 7
20 0 4
20 1 27
20 2 15
20 3 23
20 4 15
20 5 28
20 6 13
20 7 10
20 8 3
20 9 26
20 10 28
20 11 21
20 12 30
20 13 16
20 14 33
20 15 14
20 16 4
20 17 19
20 18 6
20 19 5
21 0 16
21 1 3
21 2 25
21 3 11
21 4 9
21 5 28
21 6 12
21 7 16
21 8 29
21 9 5
21 10 33
21 11 17
21 12 6
21 13 33
21 14 12
21 15 17
21 16 29
21 17 28
21 18 18
21 19 12
21 20 10
22 0 22
22 1 14
22 2 1
22 3 29
22 4 22
22 5 1
22 6 28
22 7 32
22 8 27
22 9 9
22 10 13
22 11 13
22 12 17
22 13 3
22 14 30
22 15 26
22 16 24
22 17 25
22 18 13
22 19 22
22 20 10
22 21 25
23 0 14
23 1 33
23 2 15
23 3 27
23 4 20
23 5 26
23 6 26
23 7 26
23 8 16
23 9 6
23 10 5
23 11 16
23 12 26
23 13 2
23 14 3
23 15 26
23 16 21
23 17 24
23 18 29
23 19 10
23 20 31
23 21 33
23 22 14
24 0 26
24 1 12
24 2 32
24 3 14
24 4 31
24 5 12
24 6 9
24 7 17
24 8 10
24 9 8
24 10 27
24 11 13
24 12 4
24 13 6
24 14 21
24 15 7
24 16 29
24 17 24
24 18 3
24 19 17
24 20 21
24 21 9
24 22 14
24 23 24
25 0 7
25 1 14
25 2 21
25 3 31
25 4 30
25 5 9
25 6 13
25 7 8
25 8 21
25 9 30
25 10 22
25 11 5
25 12 15
25 13 3
25 14 3
25 15 31
25 16 12
25 17 8
25 18 8
25 19 17
25 20 29
25 21 24
25 22 6
25 23 16
25 24 29
26 0 30
26 1 28
26 2 17
26 3 2
26 4 11
26 5 21
26 6 33
26 7 6
26 8 11
26 9 6
26 10 27
26 11 14
26 12 18
26 13 31
26 14 14
26 15 7
26 16 5
26 17 1
26 18 28
26 19 24
26 20 12
26 21 2
26 22 11
26 23 7
26 24 26
26 25 3
27 0 9
27 1 30
27 2 1
27 3 9
27 4 6
27 5 33
27 6 24
27 7 11
27 8 26
27 9 7
27 10 17
27 11 29
27 12 1
27 13 12
27 14 11
27 15 33
27 16 5
27 17 23
27 18 3
27 19 29
27 20 23
27 21 16
27 22 12
27 23 7
27 24 14
27 25 31
27 26 14
28 0 17
28 1 11
28 2 4
28 3 24
28 4 8
28 5 5
28 6 24
28 7 23
28 8 18
28 9 11
28 10 7
28 11 7
28 12 13
28 13 3
28 14 19
28 15 18
28 16 19
28 17 2
28 18 33
28 19 15
28 20 18
28 21 29
28 22 28
28 23 20
28 24 7
28 25 17
28 26 21
28 27 19
29 0 5
29 1 2
29 2 22
29 3 5
29 4 32
29 5 25
29 6 13
29 7 20
29 8 9
29 9 1
29 10 23
29 11 11
29 12 10
29 13 25
29 14 4
29 15 31
29 16 21
29 17 20
29 18 19
29 19 11
29 20 10
29 21 20
29 22 20
29 23 2
29 24 33
29 25 12
29 26 32
29 27 13
29 28 14
30 0 2
30 1 32
30 2 6
30 3 18
30 4 15
30 5 25
30 6 14
30 7 29
30 8 30
30 9 1
30 10 31
30 11 11
30 12 12
30 13 18
30 14 26
30 15 7
30 16 8
30 17 28
30 18 9
30 19 3
30 20 6
30 21 6
30 22 18
30 23 14
30 24 24
30 25 28
30 26 7
30 27 31
30 28 24
30 29 4
31 0 24
31 1 11
31 2 27
31 3 17
31 4 31
31 5 9
31 6 6
31 7 3
31 8 14
31 9 16
31 10 26
31 11 19
31 12 20
31 13 30
31 14 17
31 15 5
31 16 18
31 17 3
31 18 31
31 19 20
31 20 23
31 21 5
31 22 20
31 23 30
31 24 20
31 25 29
31 26 16
31 27 9
31 28 29
31 29 7
31 30 5
32 0 29
32 1 2
32 2 26
32 3 21
32 4 30
32 5 11
32 6 19
32 7 29
32 8 14
32 9 24
32 10 15
32 11 14
32 12 25
32 13 1
32 14 19
32 15 33
32 16 18
32 17 30
32 18 26
32 19 16
32 20 21
32 21 4
32 22 6
32 23 32
32 24 12
32 25 6
32 26 3
32 27 32
32 28 4
32 29 6
32 30 20
32 31 2
33 0 8
33 1 11
33 2 17
33 3 5
33 4 6
33 5 30
33 6 17
33 7 19
33 8 32
33 9 28
33 10 29
33 11 4
33 12 16
33 13 14
33 14 29
33 15 28
33 16 16
33 17 9
33 18 28
33 19 17
33 20 32
33 21 1
33 22 14
33 23 29
33 24 5
33 25 12
33 26 21
33 27 25
33 28 3
33 29 28
33 30 25
33 31 20
33 32 14
34 0 11
34 1 27
34 2 30
34 3 17
34 4 19
34 5 30
34 6 1
34 7 15
34 8 11
34 9 26
34 10 28
34 11 15
34 12 6
34 13 32
34 14 26
34 15 7
34 16 16
34 17 12
34 18 23
34 19 3
34 20 32
34 21 26
34 22 22
34 23 24
34 24 1
34 25 4
34 26 6
34 27 2
34 28 9
34 29 27
34 30 24
34 31 18
34 32 26
34 33 17
35 0 29
35 1 1
35 2 25
35 3 4
35 4 28
35 5 23
35 6 5
35 7 6
35 8 11
35 9 32
35 10 4
35 11 15
35 12 19
35 13 15
35 14 5
35 15 25
35 16 8
35 17 29
35 18 20
35 19 17
35 20 30
35 21 33
35 22 33
35 23 26
35 24 19
35 25 32
35 26 31
35 27 12
35 28 17
35 29 17
35 30 28
35 31 19
35 32 17
35 33 16
35 34 24
36 0 27
36 1 32
36 2 13
36 3 28
36 4 21
36 5 16
36 6 26
36 7 23
36 8 7
36 9 8
36 10 1
36 11 25
36 12 14
36 13 33
36 14 10
36 15 7
36 16 3
36 17 14
36 18 7
36 19 15
36 20 16
36 21 16
36 22 20
36 23 22
36 24 33
36 25 19
36 26 24
36 27 8
36 28 29
36 29 5
36 30 7
36 31 33
36 32 23
36 33 26
36 34 2
36 35 33
37 0 7
37 1 22
37 2 28
37 3 13
37 4 5
37 5 15
37 6 19
37 7 2
37 8 26
37 9 27
37 10 7
37 11 27
37 12 30
37 13 25
37 14 26
37 15 4
37 16 13
37 17 2
37 18 8
37 19 28
37 20 10
37 21 6
37 22 29
37 23 20
37 24 5
37 25 9
37 26 27
37 27 16
37 28 11
37 29 17
37 30 23
37 31 11
37 32 4
37 33 30
37 34 2
37 35 30
37 36 32
38 0 25
38 1 19
38 2 13
38 3 27
38 4 28
38 5 5
38 6 17
38 7 4
38 8 12
38 9 32
38 10 19
38 11 26
38 12 11
38 13 20
38 14 28
38 15 19
38 16 22
38 17 27
38 18 26
38 19 22
38 20 23
38 21 30
38 22 26
38 23 31
38 24 15
38 25 16
38 26 3
38 27 18
38 28 8
38 29 2
38 30 16
38 31 29
38 32 25
38 33 29
38 34 30
38 35 31
38 36 26
38 37 2
39 0 24
39 1 16
39 2 30
39 3 23
39 4 18
39 5 23
39 6 15
39 7 16
39 8 4
39 9 16
39 10 18
39 11 5
39 12 1
39 13 31
39 14 2
39 15 1
39 16 16
39 17 5
39 18 6
39 19 27
39 20 11
39 21 16
39 22 33
39 23 1
39 24 6
39 25 20
39 26 19
39 27 20
39 28 28
39 29 26
39 30 5
39 31 4
39 32 19
39 33 32
39 34 19
39 35 12
39 36 6
39 37 33
39 38 29
40 0 20
40 1 21
40 2 3
40 3 2
40 4 8
40 5 12
40 6 21
40 7 30
40 8 7
40 9 18
40 10 26
40 11 1
40 12 27
40 13 4
40 14 16
40 15 31
40 16 17
40 17 6
40 18 28
40 19 32
40 20 33
40 21 26
40 22 32
40 23 20
40 24 19
40 25 3
40 26 22
40 27 10
40 28 19
40 29 13
40 30 29
40 31 30
40 32 16
40 33 3
40 34 12
40 35 5
40 36 26
40 37 28
40 38 10
40 39 2
41 0 1
41 1 11
41 2 21
41 3 6
41 4 8
41 5 30
41 6 13
41 7 27
41 8 3
41 9 33
41 10 13
41 11 24
41 12 32
41 13 3
41 14 31
41 15 7
41 16 13
41 17 14
41 18 19
41 19 4
41 20 33
41 21 31
41 22 25
41 23 23
41 24 2
41 25 7
41 26 5
41 27 32
41 28 26
41 29 27
41 30 6
41 31 28
41 32 4
41 33 7
41 34 11
41 35 1
41 36 11
41 37 26
41 38 6
41 39 13
41 40 8
42 0 28
42 1 20
42 2 31
42 3 7
42 4 30
42 5 21
42 6 23
42 7 6
42 8 11
42 9 10
42 10 12
42 11 1
42 12 32
42 13 3
42 14 24
42 15 17
42 16 31
42 17 31
42 18 2
42 19 4
42 20 7
42 21 29
42 22 16
42 23 6
42 24 18
42 25 32
42 26 15
42 27 14
42 28 22
42 29 23
42 30 28
42 31 3
42 32 29
42 33 14
42 34 7
42 35 20
42 36 25
42 37 11
42 38 24
42 39 27
42 40 8
42 41 30
43 0 1
43 1 24
43 2 5
43 3 3
43 4 31
43 5 3
43 6 31
43 7 16
43 8 22
43 9 18
43 10 27
43 11 11
43 12 8
43 13 18
43 14 6
43 15 32
43 16 4
43 17 29
43 18 25
43 19 16
43 20 2
43 21 8
43 22 15
43 23 33
43 24 31
43 25 13
43 26 20
43 27 16
43 28 10
43 29 14
43 30 21
43 31 22
43 32 33
43 33 13
43 34 31
43 35 19
43 36 6
43 37 31
43 38 22
43 39 27
43 40 33
43 41 11
43 42 21
44 0 12
44 1 26
44 2 7
44 3 19
44 4 30
44 5 23
44 6 25
44 7 22
44 8 17
44 9 26
44 10 17
44 11 14
44 12 20
44 13 24
44 14 20
44 15 6
44 16 12
44 17 28
44 18 30
44 19 11
44 20 29
44 21 11
44 22 20
44 23 31
44 24 21
44 25 10
44 26 25
44 27 22
44 28 28
44 29 18
44 30 2
44 31 33
44 32 24
44 33 16
44 34 12
44 35 8
44 36 7
44 37 6
44 38 24
44 39 25
44 40 33
44 41 3
44 42 22
44 43 15
45 0 9
45 1 17
45 2 2
45 3 10
45 4 1
45 5 22
45 6 1
45 7 25
45 8 18
45 9 19
45 10 25
45 11 4
45 12 19
45 13 19
45 14 20
45 15 33
45 16 8
45 17 11
45 18 15
45 19 33
45 20 22
45 21 18
45 22 10
45 23 27
45 24 33
45 25 8
45 26 22
45 27 15
45 28 7
45 29 19
45 30 11
45 31 8
45 32 23
45 33 30
45 34 2
45 35 6
45 36 29
45 37 2
45 38 29
45 39 9
45 40 10
45 41 33
45 42 33
45 43 5
45 44 17
46 0 31
46 1 26
46 2 13
46 3 4
46 4 4
46 5 5
46 6 25
46 7 25
46 8 18
46 9 9
46 10 21
46 11 28
46 12 12
46 13 22
46 14 15
46 15 5
46 16 18
46 17 21
46 18 30
46 19 30
46 20 18
46 21 9
46 22 20
46 23 21
46 24 28
46 25 30
46 26 9
46 27 4
46 28 30
46 29 30
46 30 21
46 31 11
46 32 9
46 33 17
46 34 20
46 35 31
46 36 29
46 37 14
46 38 20
46 39 25
46 40 16
46 41 3
46 42 21
46 43 16
46 44 8
46 45 19
47 0 4
47 1 16
47 2 16
47 3 3
47 4 4
47 5 7
47 6 8
47 7 11
47 8 10
47 9 1
47 10 11
47 11 19
47 12 25
47 13 1
47 14 31
47 15 14
47 16 13
47 17 11
47 18 22
47 19 26
47 20 19
47 21 6
47 22 30
47 23 1
47 24 15
47 25 10
47 26 6
47 27 1
47 28 1
47 29 25
47 30 1
47 31 32
47 32 20
47 33 4
47 34 6
47 35 11
47 36 15
47 37 27
47 38 10
47 39 25
47 40 6
47 41 20
47 42 29
47 43 5
47 44 12
47 45 1
47 46 10
48 0 14
48 1 26
48 2 4
48 3 22
48 4 2
48 5 28
48 6 8
48 7 6
48 8 33
48 9 2
48 10 26
48 11 17
48 12 20
48 13 10
48 14 8
48 15 18
48 16 28
48 17 8
48 18 8
48 19 3
48 20 30
48 21 25
48 22 20
48 23 32
48 24 25
48 25 22
48 26 15
48 27 33
48 28 18
48 29 25
48 30 26
48 31 3
48 32 22
48 33 33
48 34 9
48 35 22
48 36 4
48 37 28
48 38 3
48 39 20
48 40 10
48 41 10
48 42 33
48 43 24
48 44 8
48 45 20
48 46 5
48 47 23
49 0 13
49 1 27
49 2 28
49 3 19
49 4 33
49 5 9
49 6 4
49 7 13
49 8 28
49 9 30
49 10 3
49 11 23
49 12 33
49 13 29
49 14 14
49 15 18
49 16 17
49 17 8
49 18 7
49 19 5
49 20 29
49 21 33
49 22 4
49 23 10
49 24 26
49 25 13
49 26 3
49 27 22
49 28 8
49 29 1
49 30 32
49 31 21
49 32 28
49 33 29
49 34 23
49 35 7
49 36 12
49 37 2
49 38 4
49 39 9
49 40 28
49 41 3
49 42 4
49 43 25
49 44 32
49 45 11
49 46 10
49 47 11
49 48 25
50 0 3
50 1 31
50 2 27
50 3 33
50 4 8
50 5 30
50 6 32
50 7 29
50 8 11
50 9 3
50 10 5
50 11 14
50 12 29
50 13 12
50 14 5
50 15 5
50 16 29
50 17 1
50 18 2
50 19 31
50 20 4
50 21 13
50 22 25
50 23 16
50 24 24
50 25 4
50 26 3
50 27 29
50 28 15
50 29 28
50 30 28
50 31 9
50 32 27
50 33 30
50 34 5
50 35 30
50 36 4
50 37 2
50 38 32
50 39 10
50 40 1
50 41 1
50 42 5
50 43 30
50 44 31
50 45 31
50 46 27
50 47 31
50 48 20
50 49 10
51 0 31
51 1 22
51 2 29
51 3 24
51 4 4
51 5 8
51 6 30
51 7 13
51 8 27
51 9 26
51 10 26
51 11 8
51 12 17
51 13 32
51 14 18
51 15 20
51 16 15
51 17 13
51 18 4
51 19 28
51 20 27
51 21 2
51 22 19
51 23 15
51 24 5
51 25 1
51 26 28
51 27 32
51 28 14
51 29 33
51 30 14
51 31 3
51 32 25
51 33 14
51 34 10
51 35 16
51 36 23
51 37 6
51 38 23
51 39 23
51 40 26
51 41 13
51 42 10
51 43 11
51 44 33
51 45 14
51 46 21
51 47 17
51 48 6
51 49 15
51 50 33
52 0 4
52 1 14
52 2 30
52 3 23
52 4 9
52 5 11
52 6 31
52 7 6
52 8 7
52 9 3
52 10 15
52 11 17
52 12 26
52 13 23
52 14 19
52 15 8
52 16 13
52 17 12
52 18 21
52 19 7
52 20 2
52 21 24
52 22 18
52 23 21
52 24 8
52 25 16
52 26 25
52 27 31
52 28 29
52 29 13
52 30 2
52 31 3
52 32 4
52 33 6
52 34 16
52 35 27
52 36 20
52 37 33
52 38 16
52 39 31
52 40 24
52 41 23
52 42 5
52 43 6
52 44 11
52 45 19
52 46 30
52 47 23
52 48 17
52 49 26
52 50 3
52 51 2
53 0 20
53 1 16
53 2 9
53 3 14
53 4 11
53 5 3
53 6 14
53 7 2
53 8 13
53 9 25
53 10 33
53 11 13
53 12 1
53 13 18
53 14 26
53 15 18
53 16 16
53 17 25
53 18 33
53 19 25
53 20 19
53 21 4
53 22 24
53 23 6
53 24 4
53 25 4
53 26 12
53 27 4
53 28 27
53 29 22
53 30 29
53 31 19
53 32 9
53 33 14
53 34 15
53 35 18
53 36 28
53 37 33
53 38 30
53 39 21
53 40 2
53 41 3
53 42 19
53 43 3
53 44 2
53 45 2
53 46 6
53 47 26
53 48 23
53 49 24
53 50 1
53 51 3
53 52 21
54 0 15
54 1 8
54 2 29
54 3 23
54 4 7
54 5 26
54 6 24
54 7 2
54 8 2
54 9 33
54 10 4
54 11 20
54 12 22
54 13 17
54 14 14
54 15 26
54 16 27
54 17 17
54 18 23
54 19 30
54 20 14
54 21 15
54 22 24
54 23 32
54 24 26
54 25 1
54 26 4
54 27 17
54 28 2
54 29 8
54 30 21
54 31 14
54 32 12
54 33 2
54 34 22
54 35 20
54 36 7
54 37 27
54 38 22
54 39 18
54 40 19
54 41 29
54 42 11
54 43 19
54 44 10
54 45 14
54 46 11
54 47 21
54 48 28
54 49 10
54 50 25
54 51 27
54 52 14
54 53 11
